VALUE 3071
1 2049
4 2052
6 2054
7 2055
10 2058
11 2059
13 2061
16 2064
18 2066
19 2067
21 2069
24 2072
25 2073
28 2076
30 2078
31 2079
34 2082
35 2083
37 2085
40 2088
41 2089
44 2092
46 2094
47 2095
49 2097
52 2100
54 2102
55 2103
58 2106
59 2107
61 2109
64 2112
66 2114
67 2115
69 2117
72 2120
73 2121
76 2124
78 2126
79 2127
81 2129
84 2132
86 2134
87 2135
90 2138
91 2139
93 2141
96 2144
97 2145
100 2148
102 2150
103 2151
106 2154
107 2155
109 2157
112 2160
114 2162
115 2163
117 2165
120 2168
121 2169
124 2172
126 2174
127 2175
130 2178
131 2179
133 2181
136 2184
137 2185
140 2188
142 2190
143 2191
145 2193
148 2196
150 2198
151 2199
154 2202
155 2203
157 2205
160 2208
161 2209
164 2212
166 2214
167 2215
170 2218
171 2219
173 2221
176 2224
178 2226
179 2227
181 2229
184 2232
185 2233
188 2236
190 2238
191 2239
193 2241
196 2244
198 2246
199 2247
202 2250
203 2251
205 2253
208 2256
210 2258
211 2259
213 2261
216 2264
217 2265
220 2268
222 2270
223 2271
226 2274
227 2275
229 2277
232 2280
233 2281
236 2284
238 2286
239 2287
241 2289
244 2292
246 2294
247 2295
250 2298
251 2299
253 2301
256 2304
258 2306
259 2307
261 2309
264 2312
265 2313
268 2316
270 2318
271 2319
273 2321
276 2324
278 2326
279 2327
282 2330
283 2331
285 2333
288 2336
289 2337
292 2340
294 2342
295 2343
298 2346
299 2347
301 2349
304 2352
306 2354
307 2355
309 2357
312 2360
313 2361
316 2364
318 2366
319 2367
321 2369
324 2372
326 2374
327 2375
330 2378
331 2379
333 2381
336 2384
338 2386
339 2387
341 2389
344 2392
345 2393
348 2396
350 2398
351 2399
354 2402
355 2403
357 2405
360 2408
361 2409
364 2412
366 2414
367 2415
369 2417
372 2420
374 2422
375 2423
378 2426
379 2427
381 2429
384 2432
385 2433
388 2436
390 2438
391 2439
394 2442
395 2443
397 2445
400 2448
402 2450
403 2451
405 2453
408 2456
409 2457
412 2460
414 2462
415 2463
418 2466
419 2467
421 2469
424 2472
425 2473
428 2476
430 2478
431 2479
433 2481
436 2484
438 2486
439 2487
442 2490
443 2491
445 2493
448 2496
450 2498
451 2499
453 2501
456 2504
457 2505
460 2508
462 2510
463 2511
465 2513
468 2516
470 2518
471 2519
474 2522
475 2523
477 2525
480 2528
481 2529
484 2532
486 2534
487 2535
490 2538
491 2539
493 2541
496 2544
498 2546
499 2547
501 2549
504 2552
505 2553
508 2556
510 2558
511 2559
514 2562
515 2563
517 2565
520 2568
521 2569
524 2572
526 2574
527 2575
529 2577
532 2580
534 2582
535 2583
538 2586
539 2587
541 2589
544 2592
545 2593
548 2596
550 2598
551 2599
554 2602
555 2603
557 2605
560 2608
562 2610
563 2611
565 2613
568 2616
569 2617
572 2620
574 2622
575 2623
577 2625
580 2628
582 2630
583 2631
586 2634
587 2635
589 2637
592 2640
594 2642
595 2643
597 2645
600 2648
601 2649
604 2652
606 2654
607 2655
610 2658
611 2659
613 2661
616 2664
617 2665
620 2668
622 2670
623 2671
625 2673
628 2676
630 2678
631 2679
634 2682
635 2683
637 2685
640 2688
641 2689
644 2692
646 2694
647 2695
650 2698
651 2699
653 2701
656 2704
658 2706
659 2707
661 2709
664 2712
665 2713
668 2716
670 2718
671 2719
674 2722
675 2723
677 2725
680 2728
681 2729
684 2732
686 2734
687 2735
689 2737
692 2740
694 2742
695 2743
698 2746
699 2747
701 2749
704 2752
706 2754
707 2755
709 2757
712 2760
713 2761
716 2764
718 2766
719 2767
721 2769
724 2772
726 2774
727 2775
730 2778
731 2779
733 2781
736 2784
737 2785
740 2788
742 2790
743 2791
746 2794
747 2795
749 2797
752 2800
754 2802
755 2803
757 2805
760 2808
761 2809
764 2812
766 2814
767 2815
769 2817
772 2820
774 2822
775 2823
778 2826
779 2827
781 2829
784 2832
786 2834
787 2835
789 2837
792 2840
793 2841
796 2844
798 2846
799 2847
802 2850
803 2851
805 2853
808 2856
809 2857
812 2860
814 2862
815 2863
817 2865
820 2868
822 2870
823 2871
826 2874
827 2875
829 2877
832 2880
834 2882
835 2883
837 2885
840 2888
841 2889
844 2892
846 2894
847 2895
849 2897
852 2900
854 2902
855 2903
858 2906
859 2907
861 2909
864 2912
865 2913
868 2916
870 2918
871 2919
874 2922
875 2923
877 2925
880 2928
882 2930
883 2931
885 2933
888 2936
889 2937
892 2940
894 2942
895 2943
898 2946
899 2947
901 2949
904 2952
905 2953
908 2956
910 2958
911 2959
913 2961
916 2964
918 2966
919 2967
922 2970
923 2971
925 2973
928 2976
929 2977
932 2980
934 2982
935 2983
938 2986
939 2987
941 2989
944 2992
946 2994
947 2995
949 2997
952 3000
953 3001
956 3004
958 3006
959 3007
961 3009
964 3012
966 3014
967 3015
970 3018
971 3019
973 3021
976 3024
978 3026
979 3027
981 3029
984 3032
985 3033
988 3036
990 3038
991 3039
994 3042
995 3043
997 3045
1000 3048
1001 3049
1004 3052
1006 3054
1007 3055
1009 3057
1012 3060
1014 3062
1015 3063
1018 3066
1019 3067
1021 3069
1024 2048
1026 3074
1027 3075
1029 3077
1032 3080
1033 3081
1036 3084
1038 3086
1039 3087
1041 3089
1044 3092
1046 3094
1047 3095
1050 3098
1051 3099
1053 3101
1056 3104
1057 3105
1060 3108
1062 3110
1063 3111
1066 3114
1067 3115
1069 3117
1072 3120
1074 3122
1075 3123
1077 3125
1080 3128
1081 3129
1084 3132
1086 3134
1087 3135
1089 3137
1092 3140
1094 3142
1095 3143
1098 3146
1099 3147
1101 3149
1104 3152
1106 3154
1107 3155
1109 3157
1112 3160
1113 3161
1116 3164
1118 3166
1119 3167
1122 3170
1123 3171
1125 3173
1128 3176
1129 3177
1132 3180
1134 3182
1135 3183
1137 3185
1140 3188
1142 3190
1143 3191
1146 3194
1147 3195
1149 3197
1152 3200
1153 3201
1156 3204
1158 3206
1159 3207
1162 3210
1163 3211
1165 3213
1168 3216
1170 3218
1171 3219
1173 3221
1176 3224
1177 3225
1180 3228
1182 3230
1183 3231
1186 3234
1187 3235
1189 3237
1192 3240
1193 3241
1196 3244
1198 3246
1199 3247
1201 3249
1204 3252
1206 3254
1207 3255
1210 3258
1211 3259
1213 3261
1216 3264
1218 3266
1219 3267
1221 3269
1224 3272
1225 3273
1228 3276
1230 3278
1231 3279
1233 3281
1236 3284
1238 3286
1239 3287
1242 3290
1243 3291
1245 3293
1248 3296
1249 3297
1252 3300
1254 3302
1255 3303
1258 3306
1259 3307
1261 3309
1264 3312
1266 3314
1267 3315
1269 3317
1272 3320
1273 3321
1276 3324
1278 3326
1279 3327
1281 3329
1284 3332
1286 3334
1287 3335
1290 3338
1291 3339
1293 3341
1296 3344
1298 3346
1299 3347
1301 3349
1304 3352
1305 3353
1308 3356
1310 3358
1311 3359
1314 3362
1315 3363
1317 3365
1320 3368
1321 3369
1324 3372
1326 3374
1327 3375
1329 3377
1332 3380
1334 3382
1335 3383
1338 3386
1339 3387
1341 3389
1344 3392
1346 3394
1347 3395
1349 3397
1352 3400
1353 3401
1356 3404
1358 3406
1359 3407
1361 3409
1364 3412
1366 3414
1367 3415
1370 3418
1371 3419
1373 3421
1376 3424
1377 3425
1380 3428
1382 3430
1383 3431
1386 3434
1387 3435
1389 3437
1392 3440
1394 3442
1395 3443
1397 3445
1400 3448
1401 3449
1404 3452
1406 3454
1407 3455
1410 3458
1411 3459
1413 3461
1416 3464
1417 3465
1420 3468
1422 3470
1423 3471
1425 3473
1428 3476
1430 3478
1431 3479
1434 3482
1435 3483
1437 3485
1440 3488
1441 3489
1444 3492
1446 3494
1447 3495
1450 3498
1451 3499
1453 3501
1456 3504
1458 3506
1459 3507
1461 3509
1464 3512
1465 3513
1468 3516
1470 3518
1471 3519
1473 3521
1476 3524
1478 3526
1479 3527
1482 3530
1483 3531
1485 3533
1488 3536
1490 3538
1491 3539
1493 3541
1496 3544
1497 3545
1500 3548
1502 3550
1503 3551
1506 3554
1507 3555
1509 3557
1512 3560
1513 3561
1516 3564
1518 3566
1519 3567
1521 3569
1524 3572
1526 3574
1527 3575
1530 3578
1531 3579
1533 3581
1535 1536
1535 3583
1537 3585
1540 3588
1542 3590
1543 3591
1546 3594
1547 3595
1549 3597
1552 3600
1554 3602
1555 3603
1557 3605
1560 3608
1561 3609
1564 3612
1566 3614
1567 3615
1570 3618
1571 3619
1573 3621
1576 3624
1577 3625
1580 3628
1582 3630
1583 3631
1585 3633
1588 3636
1590 3638
1591 3639
1594 3642
1595 3643
1597 3645
1600 3648
1602 3650
1603 3651
1605 3653
1608 3656
1609 3657
1612 3660
1614 3662
1615 3663
1617 3665
1620 3668
1622 3670
1623 3671
1626 3674
1627 3675
1629 3677
1632 3680
1633 3681
1636 3684
1638 3686
1639 3687
1642 3690
1643 3691
1645 3693
1648 3696
1650 3698
1651 3699
1653 3701
1656 3704
1657 3705
1660 3708
1662 3710
1663 3711
1666 3714
1667 3715
1669 3717
1672 3720
1673 3721
1676 3724
1678 3726
1679 3727
1681 3729
1684 3732
1686 3734
1687 3735
1690 3738
1691 3739
1693 3741
1696 3744
1697 3745
1700 3748
1702 3750
1703 3751
1706 3754
1707 3755
1709 3757
1712 3760
1714 3762
1715 3763
1717 3765
1720 3768
1721 3769
1724 3772
1726 3774
1727 3775
1729 3777
1732 3780
1734 3782
1735 3783
1738 3786
1739 3787
1741 3789
1744 3792
1746 3794
1747 3795
1749 3797
1752 3800
1753 3801
1756 3804
1758 3806
1759 3807
1762 3810
1763 3811
1765 3813
1768 3816
1769 3817
1772 3820
1774 3822
1775 3823
1777 3825
1780 3828
1782 3830
1783 3831
1786 3834
1787 3835
1789 3837
1791 1792
1791 3839
1794 3842
1795 3843
1797 3845
1800 3848
1801 3849
1804 3852
1806 3854
1807 3855
1809 3857
1812 3860
1814 3862
1815 3863
1818 3866
1819 3867
1821 3869
1824 3872
1825 3873
1828 3876
1830 3878
1831 3879
1834 3882
1835 3883
1837 3885
1840 3888
1842 3890
1843 3891
1845 3893
1848 3896
1849 3897
1852 3900
1854 3902
1855 3903
1857 3905
1860 3908
1862 3910
1863 3911
1866 3914
1867 3915
1869 3917
1872 3920
1874 3922
1875 3923
1877 3925
1880 3928
1881 3929
1884 3932
1886 3934
1887 3935
1890 3938
1891 3939
1893 3941
1896 3944
1897 3945
1900 3948
1902 3950
1903 3951
1905 3953
1908 3956
1910 3958
1911 3959
1914 3962
1915 3963
1917 3965
1919 1920
1919 3967
1921 3969
1924 3972
1926 3974
1927 3975
1930 3978
1931 3979
1933 3981
1936 3984
1938 3986
1939 3987
1941 3989
1944 3992
1945 3993
1948 3996
1950 3998
1951 3999
1954 4002
1955 4003
1957 4005
1960 4008
1961 4009
1964 4012
1966 4014
1967 4015
1969 4017
1972 4020
1974 4022
1975 4023
1978 4026
1979 4027
1981 4029
1983 1984
1983 4031
1986 4034
1987 4035
1989 4037
1992 4040
1993 4041
1996 4044
1998 4046
1999 4047
2001 4049
2004 4052
2006 4054
2007 4055
2010 4058
2011 4059
2013 4061
2015 2016
2015 4063
2017 4065
2020 4068
2022 4070
2023 4071
2026 4074
2027 4075
2029 4077
2031 2032
2031 4079
2034 4082
2035 4083
2037 4085
2039 4087
2039 2040
2041 4089
2043 4091
2043 2044
2045 4093
2045 2046
2045 2047
2049 3073
2050 3074
2051 3075
2052 3076
2053 3077
2054 3078
2055 3079
2056 3080
2057 3081
2058 3082
2059 3083
2060 3084
2061 3085
2062 3086
2063 3087
2064 3088
2065 3089
2066 3090
2067 3091
2068 3092
2069 3093
2070 3094
2071 3095
2072 3096
2073 3097
2074 3098
2075 3099
2076 3100
2077 3101
2078 3102
2079 3103
2080 3104
2081 3105
2082 3106
2083 3107
2084 3108
2085 3109
2086 3110
2087 3111
2088 3112
2089 3113
2090 3114
2091 3115
2092 3116
2093 3117
2094 3118
2095 3119
2096 3120
2097 3121
2098 3122
2099 3123
2100 3124
2101 3125
2102 3126
2103 3127
2104 3128
2105 3129
2106 3130
2107 3131
2108 3132
2109 3133
2110 3134
2111 3135
2112 3136
2113 3137
2114 3138
2115 3139
2116 3140
2117 3141
2118 3142
2119 3143
2120 3144
2121 3145
2122 3146
2123 3147
2124 3148
2125 3149
2126 3150
2127 3151
2128 3152
2129 3153
2130 3154
2131 3155
2132 3156
2133 3157
2134 3158
2135 3159
2136 3160
2137 3161
2138 3162
2139 3163
2140 3164
2141 3165
2142 3166
2143 3167
2144 3168
2145 3169
2146 3170
2147 3171
2148 3172
2149 3173
2150 3174
2151 3175
2152 3176
2153 3177
2154 3178
2155 3179
2156 3180
2157 3181
2158 3182
2159 3183
2160 3184
2161 3185
2162 3186
2163 3187
2164 3188
2165 3189
2166 3190
2167 3191
2168 3192
2169 3193
2170 3194
2171 3195
2172 3196
2173 3197
2174 3198
2175 3199
2176 3200
2177 3201
2178 3202
2179 3203
2180 3204
2181 3205
2182 3206
2183 3207
2184 3208
2185 3209
2186 3210
2187 3211
2188 3212
2189 3213
2190 3214
2191 3215
2192 3216
2193 3217
2194 3218
2195 3219
2196 3220
2197 3221
2198 3222
2199 3223
2200 3224
2201 3225
2202 3226
2203 3227
2204 3228
2205 3229
2206 3230
2207 3231
2208 3232
2209 3233
2210 3234
2211 3235
2212 3236
2213 3237
2214 3238
2215 3239
2216 3240
2217 3241
2218 3242
2219 3243
2220 3244
2221 3245
2222 3246
2223 3247
2224 3248
2225 3249
2226 3250
2227 3251
2228 3252
2229 3253
2230 3254
2231 3255
2232 3256
2233 3257
2234 3258
2235 3259
2236 3260
2237 3261
2238 3262
2239 3263
2240 3264
2241 3265
2242 3266
2243 3267
2244 3268
2245 3269
2246 3270
2247 3271
2248 3272
2249 3273
2250 3274
2251 3275
2252 3276
2253 3277
2254 3278
2255 3279
2256 3280
2257 3281
2258 3282
2259 3283
2260 3284
2261 3285
2262 3286
2263 3287
2264 3288
2265 3289
2266 3290
2267 3291
2268 3292
2269 3293
2270 3294
2271 3295
2272 3296
2273 3297
2274 3298
2275 3299
2276 3300
2277 3301
2278 3302
2279 3303
2280 3304
2281 3305
2282 3306
2283 3307
2284 3308
2285 3309
2286 3310
2287 3311
2288 3312
2289 3313
2290 3314
2291 3315
2292 3316
2293 3317
2294 3318
2295 3319
2296 3320
2297 3321
2298 3322
2299 3323
2300 3324
2301 3325
2302 3326
2303 3327
2304 3328
2305 3329
2306 3330
2307 3331
2308 3332
2309 3333
2310 3334
2311 3335
2312 3336
2313 3337
2314 3338
2315 3339
2316 3340
2317 3341
2318 3342
2319 3343
2320 3344
2321 3345
2322 3346
2323 3347
2324 3348
2325 3349
2326 3350
2327 3351
2328 3352
2329 3353
2330 3354
2331 3355
2332 3356
2333 3357
2334 3358
2335 3359
2336 3360
2337 3361
2338 3362
2339 3363
2340 3364
2341 3365
2342 3366
2343 3367
2344 3368
2345 3369
2346 3370
2347 3371
2348 3372
2349 3373
2350 3374
2351 3375
2352 3376
2353 3377
2354 3378
2355 3379
2356 3380
2357 3381
2358 3382
2359 3383
2360 3384
2361 3385
2362 3386
2363 3387
2364 3388
2365 3389
2366 3390
2367 3391
2368 3392
2369 3393
2370 3394
2371 3395
2372 3396
2373 3397
2374 3398
2375 3399
2376 3400
2377 3401
2378 3402
2379 3403
2380 3404
2381 3405
2382 3406
2383 3407
2384 3408
2385 3409
2386 3410
2387 3411
2388 3412
2389 3413
2390 3414
2391 3415
2392 3416
2393 3417
2394 3418
2395 3419
2396 3420
2397 3421
2398 3422
2399 3423
2400 3424
2401 3425
2402 3426
2403 3427
2404 3428
2405 3429
2406 3430
2407 3431
2408 3432
2409 3433
2410 3434
2411 3435
2412 3436
2413 3437
2414 3438
2415 3439
2416 3440
2417 3441
2418 3442
2419 3443
2420 3444
2421 3445
2422 3446
2423 3447
2424 3448
2425 3449
2426 3450
2427 3451
2428 3452
2429 3453
2430 3454
2431 3455
2432 3456
2433 3457
2434 3458
2435 3459
2436 3460
2437 3461
2438 3462
2439 3463
2440 3464
2441 3465
2442 3466
2443 3467
2444 3468
2445 3469
2446 3470
2447 3471
2448 3472
2449 3473
2450 3474
2451 3475
2452 3476
2453 3477
2454 3478
2455 3479
2456 3480
2457 3481
2458 3482
2459 3483
2460 3484
2461 3485
2462 3486
2463 3487
2464 3488
2465 3489
2466 3490
2467 3491
2468 3492
2469 3493
2470 3494
2471 3495
2472 3496
2473 3497
2474 3498
2475 3499
2476 3500
2477 3501
2478 3502
2479 3503
2480 3504
2481 3505
2482 3506
2483 3507
2484 3508
2485 3509
2486 3510
2487 3511
2488 3512
2489 3513
2490 3514
2491 3515
2492 3516
2493 3517
2494 3518
2495 3519
2496 3520
2497 3521
2498 3522
2499 3523
2500 3524
2501 3525
2502 3526
2503 3527
2504 3528
2505 3529
2506 3530
2507 3531
2508 3532
2509 3533
2510 3534
2511 3535
2512 3536
2513 3537
2514 3538
2515 3539
2516 3540
2517 3541
2518 3542
2519 3543
2520 3544
2521 3545
2522 3546
2523 3547
2524 3548
2525 3549
2526 3550
2527 3551
2528 3552
2529 3553
2530 3554
2531 3555
2532 3556
2533 3557
2534 3558
2535 3559
2536 3560
2537 3561
2538 3562
2539 3563
2540 3564
2541 3565
2542 3566
2543 3567
2544 3568
2545 3569
2546 3570
2547 3571
2548 3572
2549 3573
2550 3574
2551 3575
2552 3576
2553 3577
2554 3578
2555 3579
2556 3580
2557 3581
2558 3582
2559 2560
2559 3583
2561 3585
2562 3586
2563 3587
2564 3588
2565 3589
2566 3590
2567 3591
2568 3592
2569 3593
2570 3594
2571 3595
2572 3596
2573 3597
2574 3598
2575 3599
2576 3600
2577 3601
2578 3602
2579 3603
2580 3604
2581 3605
2582 3606
2583 3607
2584 3608
2585 3609
2586 3610
2587 3611
2588 3612
2589 3613
2590 3614
2591 3615
2592 3616
2593 3617
2594 3618
2595 3619
2596 3620
2597 3621
2598 3622
2599 3623
2600 3624
2601 3625
2602 3626
2603 3627
2604 3628
2605 3629
2606 3630
2607 3631
2608 3632
2609 3633
2610 3634
2611 3635
2612 3636
2613 3637
2614 3638
2615 3639
2616 3640
2617 3641
2618 3642
2619 3643
2620 3644
2621 3645
2622 3646
2623 3647
2624 3648
2625 3649
2626 3650
2627 3651
2628 3652
2629 3653
2630 3654
2631 3655
2632 3656
2633 3657
2634 3658
2635 3659
2636 3660
2637 3661
2638 3662
2639 3663
2640 3664
2641 3665
2642 3666
2643 3667
2644 3668
2645 3669
2646 3670
2647 3671
2648 3672
2649 3673
2650 3674
2651 3675
2652 3676
2653 3677
2654 3678
2655 3679
2656 3680
2657 3681
2658 3682
2659 3683
2660 3684
2661 3685
2662 3686
2663 3687
2664 3688
2665 3689
2666 3690
2667 3691
2668 3692
2669 3693
2670 3694
2671 3695
2672 3696
2673 3697
2674 3698
2675 3699
2676 3700
2677 3701
2678 3702
2679 3703
2680 3704
2681 3705
2682 3706
2683 3707
2684 3708
2685 3709
2686 3710
2687 3711
2688 3712
2689 3713
2690 3714
2691 3715
2692 3716
2693 3717
2694 3718
2695 3719
2696 3720
2697 3721
2698 3722
2699 3723
2700 3724
2701 3725
2702 3726
2703 3727
2704 3728
2705 3729
2706 3730
2707 3731
2708 3732
2709 3733
2710 3734
2711 3735
2712 3736
2713 3737
2714 3738
2715 3739
2716 3740
2717 3741
2718 3742
2719 3743
2720 3744
2721 3745
2722 3746
2723 3747
2724 3748
2725 3749
2726 3750
2727 3751
2728 3752
2729 3753
2730 3754
2731 3755
2732 3756
2733 3757
2734 3758
2735 3759
2736 3760
2737 3761
2738 3762
2739 3763
2740 3764
2741 3765
2742 3766
2743 3767
2744 3768
2745 3769
2746 3770
2747 3771
2748 3772
2749 3773
2750 3774
2751 3775
2752 3776
2753 3777
2754 3778
2755 3779
2756 3780
2757 3781
2758 3782
2759 3783
2760 3784
2761 3785
2762 3786
2763 3787
2764 3788
2765 3789
2766 3790
2767 3791
2768 3792
2769 3793
2770 3794
2771 3795
2772 3796
2773 3797
2774 3798
2775 3799
2776 3800
2777 3801
2778 3802
2779 3803
2780 3804
2781 3805
2782 3806
2783 3807
2784 3808
2785 3809
2786 3810
2787 3811
2788 3812
2789 3813
2790 3814
2791 3815
2792 3816
2793 3817
2794 3818
2795 3819
2796 3820
2797 3821
2798 3822
2799 3823
2800 3824
2801 3825
2802 3826
2803 3827
2804 3828
2805 3829
2806 3830
2807 3831
2808 3832
2809 3833
2810 3834
2811 3835
2812 3836
2813 3837
2814 3838
2815 2816
2815 3839
2817 3841
2818 3842
2819 3843
2820 3844
2821 3845
2822 3846
2823 3847
2824 3848
2825 3849
2826 3850
2827 3851
2828 3852
2829 3853
2830 3854
2831 3855
2832 3856
2833 3857
2834 3858
2835 3859
2836 3860
2837 3861
2838 3862
2839 3863
2840 3864
2841 3865
2842 3866
2843 3867
2844 3868
2845 3869
2846 3870
2847 3871
2848 3872
2849 3873
2850 3874
2851 3875
2852 3876
2853 3877
2854 3878
2855 3879
2856 3880
2857 3881
2858 3882
2859 3883
2860 3884
2861 3885
2862 3886
2863 3887
2864 3888
2865 3889
2866 3890
2867 3891
2868 3892
2869 3893
2870 3894
2871 3895
2872 3896
2873 3897
2874 3898
2875 3899
2876 3900
2877 3901
2878 3902
2879 3903
2880 3904
2881 3905
2882 3906
2883 3907
2884 3908
2885 3909
2886 3910
2887 3911
2888 3912
2889 3913
2890 3914
2891 3915
2892 3916
2893 3917
2894 3918
2895 3919
2896 3920
2897 3921
2898 3922
2899 3923
2900 3924
2901 3925
2902 3926
2903 3927
2904 3928
2905 3929
2906 3930
2907 3931
2908 3932
2909 3933
2910 3934
2911 3935
2912 3936
2913 3937
2914 3938
2915 3939
2916 3940
2917 3941
2918 3942
2919 3943
2920 3944
2921 3945
2922 3946
2923 3947
2924 3948
2925 3949
2926 3950
2927 3951
2928 3952
2929 3953
2930 3954
2931 3955
2932 3956
2933 3957
2934 3958
2935 3959
2936 3960
2937 3961
2938 3962
2939 3963
2940 3964
2941 3965
2942 3966
2943 2944
2943 3967
2945 3969
2946 3970
2947 3971
2948 3972
2949 3973
2950 3974
2951 3975
2952 3976
2953 3977
2954 3978
2955 3979
2956 3980
2957 3981
2958 3982
2959 3983
2960 3984
2961 3985
2962 3986
2963 3987
2964 3988
2965 3989
2966 3990
2967 3991
2968 3992
2969 3993
2970 3994
2971 3995
2972 3996
2973 3997
2974 3998
2975 3999
2976 4000
2977 4001
2978 4002
2979 4003
2980 4004
2981 4005
2982 4006
2983 4007
2984 4008
2985 4009
2986 4010
2987 4011
2988 4012
2989 4013
2990 4014
2991 4015
2992 4016
2993 4017
2994 4018
2995 4019
2996 4020
2997 4021
2998 4022
2999 4023
3000 4024
3001 4025
3002 4026
3003 4027
3004 4028
3005 4029
3006 4030
3007 3008
3007 4031
3009 4033
3010 4034
3011 4035
3012 4036
3013 4037
3014 4038
3015 4039
3016 4040
3017 4041
3018 4042
3019 4043
3020 4044
3021 4045
3022 4046
3023 4047
3024 4048
3025 4049
3026 4050
3027 4051
3028 4052
3029 4053
3030 4054
3031 4055
3032 4056
3033 4057
3034 4058
3035 4059
3036 4060
3037 4061
3038 4062
3039 3040
3039 4063
3041 4065
3042 4066
3043 4067
3044 4068
3045 4069
3046 4070
3047 4071
3048 4072
3049 4073
3050 4074
3051 4075
3052 4076
3053 4077
3054 4078
3055 3056
3055 4079
3057 4081
3058 4082
3059 4083
3060 4084
3061 4085
3062 4086
3063 4087
3063 3064
3065 4089
3066 4090
3067 4091
3067 3068
3069 4093
3069 3070
3069 3071
3073 3585
3074 3586
3075 3587
3076 3588
3077 3589
3078 3590
3079 3591
3080 3592
3081 3593
3082 3594
3083 3595
3084 3596
3085 3597
3086 3598
3087 3599
3088 3600
3089 3601
3090 3602
3091 3603
3092 3604
3093 3605
3094 3606
3095 3607
3096 3608
3097 3609
3098 3610
3099 3611
3100 3612
3101 3613
3102 3614
3103 3615
3104 3616
3105 3617
3106 3618
3107 3619
3108 3620
3109 3621
3110 3622
3111 3623
3112 3624
3113 3625
3114 3626
3115 3627
3116 3628
3117 3629
3118 3630
3119 3631
3120 3632
3121 3633
3122 3634
3123 3635
3124 3636
3125 3637
3126 3638
3127 3639
3128 3640
3129 3641
3130 3642
3131 3643
3132 3644
3133 3645
3134 3646
3135 3647
3136 3648
3137 3649
3138 3650
3139 3651
3140 3652
3141 3653
3142 3654
3143 3655
3144 3656
3145 3657
3146 3658
3147 3659
3148 3660
3149 3661
3150 3662
3151 3663
3152 3664
3153 3665
3154 3666
3155 3667
3156 3668
3157 3669
3158 3670
3159 3671
3160 3672
3161 3673
3162 3674
3163 3675
3164 3676
3165 3677
3166 3678
3167 3679
3168 3680
3169 3681
3170 3682
3171 3683
3172 3684
3173 3685
3174 3686
3175 3687
3176 3688
3177 3689
3178 3690
3179 3691
3180 3692
3181 3693
3182 3694
3183 3695
3184 3696
3185 3697
3186 3698
3187 3699
3188 3700
3189 3701
3190 3702
3191 3703
3192 3704
3193 3705
3194 3706
3195 3707
3196 3708
3197 3709
3198 3710
3199 3711
3200 3712
3201 3713
3202 3714
3203 3715
3204 3716
3205 3717
3206 3718
3207 3719
3208 3720
3209 3721
3210 3722
3211 3723
3212 3724
3213 3725
3214 3726
3215 3727
3216 3728
3217 3729
3218 3730
3219 3731
3220 3732
3221 3733
3222 3734
3223 3735
3224 3736
3225 3737
3226 3738
3227 3739
3228 3740
3229 3741
3230 3742
3231 3743
3232 3744
3233 3745
3234 3746
3235 3747
3236 3748
3237 3749
3238 3750
3239 3751
3240 3752
3241 3753
3242 3754
3243 3755
3244 3756
3245 3757
3246 3758
3247 3759
3248 3760
3249 3761
3250 3762
3251 3763
3252 3764
3253 3765
3254 3766
3255 3767
3256 3768
3257 3769
3258 3770
3259 3771
3260 3772
3261 3773
3262 3774
3263 3775
3264 3776
3265 3777
3266 3778
3267 3779
3268 3780
3269 3781
3270 3782
3271 3783
3272 3784
3273 3785
3274 3786
3275 3787
3276 3788
3277 3789
3278 3790
3279 3791
3280 3792
3281 3793
3282 3794
3283 3795
3284 3796
3285 3797
3286 3798
3287 3799
3288 3800
3289 3801
3290 3802
3291 3803
3292 3804
3293 3805
3294 3806
3295 3807
3296 3808
3297 3809
3298 3810
3299 3811
3300 3812
3301 3813
3302 3814
3303 3815
3304 3816
3305 3817
3306 3818
3307 3819
3308 3820
3309 3821
3310 3822
3311 3823
3312 3824
3313 3825
3314 3826
3315 3827
3316 3828
3317 3829
3318 3830
3319 3831
3320 3832
3321 3833
3322 3834
3323 3835
3324 3836
3325 3837
3326 3838
3327 3328
3327 3839
3329 3841
3330 3842
3331 3843
3332 3844
3333 3845
3334 3846
3335 3847
3336 3848
3337 3849
3338 3850
3339 3851
3340 3852
3341 3853
3342 3854
3343 3855
3344 3856
3345 3857
3346 3858
3347 3859
3348 3860
3349 3861
3350 3862
3351 3863
3352 3864
3353 3865
3354 3866
3355 3867
3356 3868
3357 3869
3358 3870
3359 3871
3360 3872
3361 3873
3362 3874
3363 3875
3364 3876
3365 3877
3366 3878
3367 3879
3368 3880
3369 3881
3370 3882
3371 3883
3372 3884
3373 3885
3374 3886
3375 3887
3376 3888
3377 3889
3378 3890
3379 3891
3380 3892
3381 3893
3382 3894
3383 3895
3384 3896
3385 3897
3386 3898
3387 3899
3388 3900
3389 3901
3390 3902
3391 3903
3392 3904
3393 3905
3394 3906
3395 3907
3396 3908
3397 3909
3398 3910
3399 3911
3400 3912
3401 3913
3402 3914
3403 3915
3404 3916
3405 3917
3406 3918
3407 3919
3408 3920
3409 3921
3410 3922
3411 3923
3412 3924
3413 3925
3414 3926
3415 3927
3416 3928
3417 3929
3418 3930
3419 3931
3420 3932
3421 3933
3422 3934
3423 3935
3424 3936
3425 3937
3426 3938
3427 3939
3428 3940
3429 3941
3430 3942
3431 3943
3432 3944
3433 3945
3434 3946
3435 3947
3436 3948
3437 3949
3438 3950
3439 3951
3440 3952
3441 3953
3442 3954
3443 3955
3444 3956
3445 3957
3446 3958
3447 3959
3448 3960
3449 3961
3450 3962
3451 3963
3452 3964
3453 3965
3454 3966
3455 3456
3455 3967
3457 3969
3458 3970
3459 3971
3460 3972
3461 3973
3462 3974
3463 3975
3464 3976
3465 3977
3466 3978
3467 3979
3468 3980
3469 3981
3470 3982
3471 3983
3472 3984
3473 3985
3474 3986
3475 3987
3476 3988
3477 3989
3478 3990
3479 3991
3480 3992
3481 3993
3482 3994
3483 3995
3484 3996
3485 3997
3486 3998
3487 3999
3488 4000
3489 4001
3490 4002
3491 4003
3492 4004
3493 4005
3494 4006
3495 4007
3496 4008
3497 4009
3498 4010
3499 4011
3500 4012
3501 4013
3502 4014
3503 4015
3504 4016
3505 4017
3506 4018
3507 4019
3508 4020
3509 4021
3510 4022
3511 4023
3512 4024
3513 4025
3514 4026
3515 4027
3516 4028
3517 4029
3518 4030
3519 3520
3519 4031
3521 4033
3522 4034
3523 4035
3524 4036
3525 4037
3526 4038
3527 4039
3528 4040
3529 4041
3530 4042
3531 4043
3532 4044
3533 4045
3534 4046
3535 4047
3536 4048
3537 4049
3538 4050
3539 4051
3540 4052
3541 4053
3542 4054
3543 4055
3544 4056
3545 4057
3546 4058
3547 4059
3548 4060
3549 4061
3550 4062
3551 3552
3551 4063
3553 4065
3554 4066
3555 4067
3556 4068
3557 4069
3558 4070
3559 4071
3560 4072
3561 4073
3562 4074
3563 4075
3564 4076
3565 4077
3566 4078
3567 3568
3567 4079
3569 4081
3570 4082
3571 4083
3572 4084
3573 4085
3574 4086
3575 4087
3575 3576
3577 4089
3578 4090
3579 4091
3579 3580
3581 4093
3581 3582
3581 3583
3585 3841
3586 3842
3587 3843
3588 3844
3589 3845
3590 3846
3591 3847
3592 3848
3593 3849
3594 3850
3595 3851
3596 3852
3597 3853
3598 3854
3599 3855
3600 3856
3601 3857
3602 3858
3603 3859
3604 3860
3605 3861
3606 3862
3607 3863
3608 3864
3609 3865
3610 3866
3611 3867
3612 3868
3613 3869
3614 3870
3615 3871
3616 3872
3617 3873
3618 3874
3619 3875
3620 3876
3621 3877
3622 3878
3623 3879
3624 3880
3625 3881
3626 3882
3627 3883
3628 3884
3629 3885
3630 3886
3631 3887
3632 3888
3633 3889
3634 3890
3635 3891
3636 3892
3637 3893
3638 3894
3639 3895
3640 3896
3641 3897
3642 3898
3643 3899
3644 3900
3645 3901
3646 3902
3647 3903
3648 3904
3649 3905
3650 3906
3651 3907
3652 3908
3653 3909
3654 3910
3655 3911
3656 3912
3657 3913
3658 3914
3659 3915
3660 3916
3661 3917
3662 3918
3663 3919
3664 3920
3665 3921
3666 3922
3667 3923
3668 3924
3669 3925
3670 3926
3671 3927
3672 3928
3673 3929
3674 3930
3675 3931
3676 3932
3677 3933
3678 3934
3679 3935
3680 3936
3681 3937
3682 3938
3683 3939
3684 3940
3685 3941
3686 3942
3687 3943
3688 3944
3689 3945
3690 3946
3691 3947
3692 3948
3693 3949
3694 3950
3695 3951
3696 3952
3697 3953
3698 3954
3699 3955
3700 3956
3701 3957
3702 3958
3703 3959
3704 3960
3705 3961
3706 3962
3707 3963
3708 3964
3709 3965
3710 3966
3711 3712
3711 3967
3713 3969
3714 3970
3715 3971
3716 3972
3717 3973
3718 3974
3719 3975
3720 3976
3721 3977
3722 3978
3723 3979
3724 3980
3725 3981
3726 3982
3727 3983
3728 3984
3729 3985
3730 3986
3731 3987
3732 3988
3733 3989
3734 3990
3735 3991
3736 3992
3737 3993
3738 3994
3739 3995
3740 3996
3741 3997
3742 3998
3743 3999
3744 4000
3745 4001
3746 4002
3747 4003
3748 4004
3749 4005
3750 4006
3751 4007
3752 4008
3753 4009
3754 4010
3755 4011
3756 4012
3757 4013
3758 4014
3759 4015
3760 4016
3761 4017
3762 4018
3763 4019
3764 4020
3765 4021
3766 4022
3767 4023
3768 4024
3769 4025
3770 4026
3771 4027
3772 4028
3773 4029
3774 4030
3775 3776
3775 4031
3777 4033
3778 4034
3779 4035
3780 4036
3781 4037
3782 4038
3783 4039
3784 4040
3785 4041
3786 4042
3787 4043
3788 4044
3789 4045
3790 4046
3791 4047
3792 4048
3793 4049
3794 4050
3795 4051
3796 4052
3797 4053
3798 4054
3799 4055
3800 4056
3801 4057
3802 4058
3803 4059
3804 4060
3805 4061
3806 4062
3807 3808
3807 4063
3809 4065
3810 4066
3811 4067
3812 4068
3813 4069
3814 4070
3815 4071
3816 4072
3817 4073
3818 4074
3819 4075
3820 4076
3821 4077
3822 4078
3823 3824
3823 4079
3825 4081
3826 4082
3827 4083
3828 4084
3829 4085
3830 4086
3831 4087
3831 3832
3833 4089
3834 4090
3835 4091
3835 3836
3837 4093
3837 3838
3837 3839
3841 3969
3842 3970
3843 3971
3844 3972
3845 3973
3846 3974
3847 3975
3848 3976
3849 3977
3850 3978
3851 3979
3852 3980
3853 3981
3854 3982
3855 3983
3856 3984
3857 3985
3858 3986
3859 3987
3860 3988
3861 3989
3862 3990
3863 3991
3864 3992
3865 3993
3866 3994
3867 3995
3868 3996
3869 3997
3870 3998
3871 3999
3872 4000
3873 4001
3874 4002
3875 4003
3876 4004
3877 4005
3878 4006
3879 4007
3880 4008
3881 4009
3882 4010
3883 4011
3884 4012
3885 4013
3886 4014
3887 4015
3888 4016
3889 4017
3890 4018
3891 4019
3892 4020
3893 4021
3894 4022
3895 4023
3896 4024
3897 4025
3898 4026
3899 4027
3900 4028
3901 4029
3902 4030
3903 3904
3903 4031
3905 4033
3906 4034
3907 4035
3908 4036
3909 4037
3910 4038
3911 4039
3912 4040
3913 4041
3914 4042
3915 4043
3916 4044
3917 4045
3918 4046
3919 4047
3920 4048
3921 4049
3922 4050
3923 4051
3924 4052
3925 4053
3926 4054
3927 4055
3928 4056
3929 4057
3930 4058
3931 4059
3932 4060
3933 4061
3934 4062
3935 3936
3935 4063
3937 4065
3938 4066
3939 4067
3940 4068
3941 4069
3942 4070
3943 4071
3944 4072
3945 4073
3946 4074
3947 4075
3948 4076
3949 4077
3950 4078
3951 3952
3951 4079
3953 4081
3954 4082
3955 4083
3956 4084
3957 4085
3958 4086
3959 4087
3959 3960
3961 4089
3962 4090
3963 4091
3963 3964
3965 4093
3965 3966
3965 3967
3969 4033
3970 4034
3971 4035
3972 4036
3973 4037
3974 4038
3975 4039
3976 4040
3977 4041
3978 4042
3979 4043
3980 4044
3981 4045
3982 4046
3983 4047
3984 4048
3985 4049
3986 4050
3987 4051
3988 4052
3989 4053
3990 4054
3991 4055
3992 4056
3993 4057
3994 4058
3995 4059
3996 4060
3997 4061
3998 4062
3999 4000
3999 4063
4001 4065
4002 4066
4003 4067
4004 4068
4005 4069
4006 4070
4007 4071
4008 4072
4009 4073
4010 4074
4011 4075
4012 4076
4013 4077
4014 4078
4015 4016
4015 4079
4017 4081
4018 4082
4019 4083
4020 4084
4021 4085
4022 4086
4023 4087
4023 4024
4025 4089
4026 4090
4027 4091
4027 4028
4029 4093
4029 4030
4029 4031
4033 4065
4034 4066
4035 4067
4036 4068
4037 4069
4038 4070
4039 4071
4040 4072
4041 4073
4042 4074
4043 4075
4044 4076
4045 4077
4046 4078
4047 4048
4047 4079
4049 4081
4050 4082
4051 4083
4052 4084
4053 4085
4054 4086
4055 4087
4055 4056
4057 4089
4058 4090
4059 4091
4059 4060
4061 4093
4061 4062
4061 4063
4065 4081
4066 4074
4067 4075
4068 4084
4069 4077
4070 4086
4071 4087
4071 4072
4073 4077
4074 4090
4075 4091
4075 4076
4077 4093
4077 4078
4077 4079
4081 4085
4082 4090
4083 4084
4083 4091
4085 4086
4085 4087
4085 4093
4089 4090
4089 4091
4089 4093
4093 4094
4096 2048
4096 4094